; benchmark generated from python API
(set-info :status unknown)
(declare-fun cell_1_4 () Int)
(declare-fun cell_1_7 () Int)
(declare-fun cell_2_3 () Int)
(declare-fun cell_2_8 () Int)
(declare-fun cell_3_2 () Int)
(declare-fun cell_3_5 () Int)
(declare-fun cell_4_7 () Int)
(declare-fun cell_4_9 () Int)
(declare-fun cell_5_1 () Int)
(declare-fun cell_5_3 () Int)
(declare-fun cell_6_4 () Int)
(declare-fun cell_6_6 () Int)
(declare-fun cell_7_2 () Int)
(declare-fun cell_7_5 () Int)
(declare-fun cell_8_8 () Int)
(declare-fun cell_8_9 () Int)
(declare-fun cell_9_1 () Int)
(declare-fun cell_1_1 () Int)
(declare-fun cell_2_1 () Int)
(declare-fun cell_3_1 () Int)
(declare-fun cell_4_1 () Int)
(declare-fun cell_6_1 () Int)
(declare-fun cell_7_1 () Int)
(declare-fun cell_8_1 () Int)
(declare-fun cell_1_2 () Int)
(declare-fun cell_2_2 () Int)
(declare-fun cell_4_2 () Int)
(declare-fun cell_5_2 () Int)
(declare-fun cell_6_2 () Int)
(declare-fun cell_8_2 () Int)
(declare-fun cell_9_2 () Int)
(declare-fun cell_1_3 () Int)
(declare-fun cell_3_3 () Int)
(declare-fun cell_4_3 () Int)
(declare-fun cell_6_3 () Int)
(declare-fun cell_7_3 () Int)
(declare-fun cell_8_3 () Int)
(declare-fun cell_9_3 () Int)
(declare-fun cell_2_4 () Int)
(declare-fun cell_3_4 () Int)
(declare-fun cell_4_4 () Int)
(declare-fun cell_5_4 () Int)
(declare-fun cell_7_4 () Int)
(declare-fun cell_8_4 () Int)
(declare-fun cell_9_4 () Int)
(declare-fun cell_1_5 () Int)
(declare-fun cell_2_5 () Int)
(declare-fun cell_4_5 () Int)
(declare-fun cell_5_5 () Int)
(declare-fun cell_6_5 () Int)
(declare-fun cell_8_5 () Int)
(declare-fun cell_9_5 () Int)
(declare-fun cell_1_6 () Int)
(declare-fun cell_2_6 () Int)
(declare-fun cell_3_6 () Int)
(declare-fun cell_4_6 () Int)
(declare-fun cell_5_6 () Int)
(declare-fun cell_7_6 () Int)
(declare-fun cell_8_6 () Int)
(declare-fun cell_9_6 () Int)
(declare-fun cell_2_7 () Int)
(declare-fun cell_3_7 () Int)
(declare-fun cell_5_7 () Int)
(declare-fun cell_6_7 () Int)
(declare-fun cell_7_7 () Int)
(declare-fun cell_8_7 () Int)
(declare-fun cell_9_7 () Int)
(declare-fun cell_1_8 () Int)
(declare-fun cell_3_8 () Int)
(declare-fun cell_4_8 () Int)
(declare-fun cell_5_8 () Int)
(declare-fun cell_6_8 () Int)
(declare-fun cell_7_8 () Int)
(declare-fun cell_9_8 () Int)
(declare-fun cell_1_9 () Int)
(declare-fun cell_2_9 () Int)
(declare-fun cell_3_9 () Int)
(declare-fun cell_5_9 () Int)
(declare-fun cell_6_9 () Int)
(declare-fun cell_7_9 () Int)
(declare-fun cell_9_9 () Int)
(assert
 (= cell_1_4 1))
(assert
 (= cell_1_7 2))
(assert
 (= cell_2_3 2))
(assert
 (= cell_2_8 1))
(assert
 (= cell_3_2 1))
(assert
 (= cell_3_5 2))
(assert
 (= cell_4_7 1))
(assert
 (= cell_4_9 2))
(assert
 (= cell_5_1 2))
(assert
 (= cell_5_3 1))
(assert
 (= cell_6_4 2))
(assert
 (= cell_6_6 1))
(assert
 (= cell_7_2 2))
(assert
 (= cell_7_5 1))
(assert
 (= cell_8_8 2))
(assert
 (= cell_8_9 1))
(assert
 (= cell_9_1 1))
(assert
 (let (($x264 (= cell_1_1 9)))
 (let (($x2055 (= cell_1_1 8)))
 (let (($x1986 (= cell_1_1 7)))
 (let (($x2727 (= cell_1_1 6)))
 (let (($x626 (= cell_1_1 5)))
 (let (($x472 (= cell_1_1 4)))
 (let (($x2323 (= cell_1_1 3)))
 (let (($x2592 (= cell_1_1 2)))
 (let (($x177 (= cell_1_1 1)))
 (or $x177 $x2592 $x2323 $x472 $x626 $x2727 $x1986 $x2055 $x264)))))))))))
(assert
 (let (($x1039 (= cell_2_1 9)))
 (let (($x4051 (= cell_2_1 8)))
 (let (($x1870 (= cell_2_1 7)))
 (let (($x1141 (= cell_2_1 6)))
 (let (($x3735 (= cell_2_1 5)))
 (let (($x2165 (= cell_2_1 4)))
 (let (($x3306 (= cell_2_1 3)))
 (let (($x1879 (= cell_2_1 2)))
 (let (($x1007 (= cell_2_1 1)))
 (or $x1007 $x1879 $x3306 $x2165 $x3735 $x1141 $x1870 $x4051 $x1039)))))))))))
(assert
 (let (($x97 (= cell_3_1 9)))
 (let (($x2893 (= cell_3_1 8)))
 (let (($x2765 (= cell_3_1 7)))
 (let (($x4134 (= cell_3_1 6)))
 (let (($x972 (= cell_3_1 5)))
 (let (($x8028 (= cell_3_1 4)))
 (let (($x3091 (= cell_3_1 3)))
 (let (($x677 (= cell_3_1 2)))
 (let (($x1718 (= cell_3_1 1)))
 (or $x1718 $x677 $x3091 $x8028 $x972 $x4134 $x2765 $x2893 $x97)))))))))))
(assert
 (let (($x2062 (= cell_4_1 9)))
 (let (($x2001 (= cell_4_1 8)))
 (let (($x157 (= cell_4_1 7)))
 (let (($x2352 (= cell_4_1 6)))
 (let (($x3872 (= cell_4_1 5)))
 (let (($x3049 (= cell_4_1 4)))
 (let (($x2163 (= cell_4_1 3)))
 (let (($x1733 (= cell_4_1 2)))
 (let (($x2553 (= cell_4_1 1)))
 (or $x2553 $x1733 $x2163 $x3049 $x3872 $x2352 $x157 $x2001 $x2062)))))))))))
(assert
 (let (($x2638 (= cell_5_1 2)))
 (or (= cell_5_1 1) $x2638 (= cell_5_1 3) (= cell_5_1 4) (= cell_5_1 5) (= cell_5_1 6) (= cell_5_1 7) (= cell_5_1 8) (= cell_5_1 9))))
(assert
 (let (($x2146 (= cell_6_1 9)))
 (let (($x1176 (= cell_6_1 8)))
 (let (($x349 (= cell_6_1 7)))
 (let (($x795 (= cell_6_1 6)))
 (let (($x1486 (= cell_6_1 5)))
 (let (($x3870 (= cell_6_1 4)))
 (let (($x1202 (= cell_6_1 3)))
 (let (($x3709 (= cell_6_1 2)))
 (let (($x1273 (= cell_6_1 1)))
 (or $x1273 $x3709 $x1202 $x3870 $x1486 $x795 $x349 $x1176 $x2146)))))))))))
(assert
 (let (($x2857 (= cell_7_1 9)))
 (let (($x3375 (= cell_7_1 8)))
 (let (($x2116 (= cell_7_1 7)))
 (let (($x729 (= cell_7_1 6)))
 (let (($x2648 (= cell_7_1 5)))
 (let (($x1188 (= cell_7_1 4)))
 (let (($x3167 (= cell_7_1 3)))
 (let (($x351 (= cell_7_1 2)))
 (let (($x2028 (= cell_7_1 1)))
 (or $x2028 $x351 $x3167 $x1188 $x2648 $x729 $x2116 $x3375 $x2857)))))))))))
(assert
 (let (($x3968 (= cell_8_1 9)))
 (let (($x701 (= cell_8_1 8)))
 (let (($x1994 (= cell_8_1 7)))
 (let (($x146 (= cell_8_1 6)))
 (let (($x2314 (= cell_8_1 5)))
 (let (($x1392 (= cell_8_1 4)))
 (let (($x2339 (= cell_8_1 3)))
 (let (($x2560 (= cell_8_1 2)))
 (let (($x3505 (= cell_8_1 1)))
 (or $x3505 $x2560 $x2339 $x1392 $x2314 $x146 $x1994 $x701 $x3968)))))))))))
(assert
 (let (($x3568 (= cell_9_1 1)))
 (or $x3568 (= cell_9_1 2) (= cell_9_1 3) (= cell_9_1 4) (= cell_9_1 5) (= cell_9_1 6) (= cell_9_1 7) (= cell_9_1 8) (= cell_9_1 9))))
(assert
 (let (($x1673 (= cell_1_2 9)))
 (let (($x2486 (= cell_1_2 8)))
 (let (($x2597 (= cell_1_2 7)))
 (let (($x7670 (= cell_1_2 6)))
 (let (($x1030 (= cell_1_2 5)))
 (let (($x1860 (= cell_1_2 4)))
 (let (($x2786 (= cell_1_2 3)))
 (let (($x1538 (= cell_1_2 2)))
 (let (($x3727 (= cell_1_2 1)))
 (or $x3727 $x1538 $x2786 $x1860 $x1030 $x7670 $x2597 $x2486 $x1673)))))))))))
(assert
 (let (($x194 (= cell_2_2 9)))
 (let (($x1149 (= cell_2_2 8)))
 (let (($x299 (= cell_2_2 7)))
 (let (($x3530 (= cell_2_2 6)))
 (let (($x1755 (= cell_2_2 5)))
 (let (($x296 (= cell_2_2 4)))
 (let (($x2657 (= cell_2_2 3)))
 (let (($x2335 (= cell_2_2 2)))
 (let (($x4049 (= cell_2_2 1)))
 (or $x4049 $x2335 $x2657 $x296 $x1755 $x3530 $x299 $x1149 $x194)))))))))))
(assert
 (let (($x2718 (= cell_3_2 1)))
 (or $x2718 (= cell_3_2 2) (= cell_3_2 3) (= cell_3_2 4) (= cell_3_2 5) (= cell_3_2 6) (= cell_3_2 7) (= cell_3_2 8) (= cell_3_2 9))))
(assert
 (let (($x1892 (= cell_4_2 9)))
 (let (($x1759 (= cell_4_2 8)))
 (let (($x575 (= cell_4_2 7)))
 (let (($x78 (= cell_4_2 6)))
 (let (($x2701 (= cell_4_2 5)))
 (let (($x1121 (= cell_4_2 4)))
 (let (($x7841 (= cell_4_2 3)))
 (let (($x2048 (= cell_4_2 2)))
 (let (($x231 (= cell_4_2 1)))
 (or $x231 $x2048 $x7841 $x1121 $x2701 $x78 $x575 $x1759 $x1892)))))))))))
(assert
 (let (($x2334 (= cell_5_2 9)))
 (let (($x1800 (= cell_5_2 8)))
 (let (($x801 (= cell_5_2 7)))
 (let (($x2152 (= cell_5_2 6)))
 (let (($x2555 (= cell_5_2 5)))
 (let (($x2705 (= cell_5_2 4)))
 (let (($x2666 (= cell_5_2 3)))
 (let (($x1168 (= cell_5_2 2)))
 (let (($x2432 (= cell_5_2 1)))
 (or $x2432 $x1168 $x2666 $x2705 $x2555 $x2152 $x801 $x1800 $x2334)))))))))))
(assert
 (let (($x2616 (= cell_6_2 9)))
 (let (($x2590 (= cell_6_2 8)))
 (let (($x590 (= cell_6_2 7)))
 (let (($x4155 (= cell_6_2 6)))
 (let (($x2823 (= cell_6_2 5)))
 (let (($x287 (= cell_6_2 4)))
 (let (($x882 (= cell_6_2 3)))
 (let (($x2279 (= cell_6_2 2)))
 (let (($x4180 (= cell_6_2 1)))
 (or $x4180 $x2279 $x882 $x287 $x2823 $x4155 $x590 $x2590 $x2616)))))))))))
(assert
 (let (($x2189 (= cell_7_2 2)))
 (or (= cell_7_2 1) $x2189 (= cell_7_2 3) (= cell_7_2 4) (= cell_7_2 5) (= cell_7_2 6) (= cell_7_2 7) (= cell_7_2 8) (= cell_7_2 9))))
(assert
 (let (($x1339 (= cell_8_2 9)))
 (let (($x2023 (= cell_8_2 8)))
 (let (($x2962 (= cell_8_2 7)))
 (let (($x3079 (= cell_8_2 6)))
 (let (($x1897 (= cell_8_2 5)))
 (let (($x3465 (= cell_8_2 4)))
 (let (($x2611 (= cell_8_2 3)))
 (let (($x3672 (= cell_8_2 2)))
 (let (($x2545 (= cell_8_2 1)))
 (or $x2545 $x3672 $x2611 $x3465 $x1897 $x3079 $x2962 $x2023 $x1339)))))))))))
(assert
 (let (($x118 (= cell_9_2 2)))
 (let (($x2574 (= cell_9_2 1)))
 (or $x2574 $x118 (= cell_9_2 3) (= cell_9_2 4) (= cell_9_2 5) (= cell_9_2 6) (= cell_9_2 7) (= cell_9_2 8) (= cell_9_2 9)))))
(assert
 (let (($x790 (= cell_1_3 9)))
 (let (($x1849 (= cell_1_3 8)))
 (let (($x2821 (= cell_1_3 7)))
 (let (($x369 (= cell_1_3 6)))
 (let (($x1167 (= cell_1_3 5)))
 (let (($x3737 (= cell_1_3 4)))
 (let (($x7649 (= cell_1_3 3)))
 (let (($x1031 (= cell_1_3 2)))
 (let (($x228 (= cell_1_3 1)))
 (or $x228 $x1031 $x7649 $x3737 $x1167 $x369 $x2821 $x1849 $x790)))))))))))
(assert
 (let (($x800 (= cell_2_3 2)))
 (or (= cell_2_3 1) $x800 (= cell_2_3 3) (= cell_2_3 4) (= cell_2_3 5) (= cell_2_3 6) (= cell_2_3 7) (= cell_2_3 8) (= cell_2_3 9))))
(assert
 (let (($x1725 (= cell_3_3 9)))
 (let (($x1075 (= cell_3_3 8)))
 (let (($x1303 (= cell_3_3 7)))
 (let (($x1237 (= cell_3_3 6)))
 (let (($x2332 (= cell_3_3 5)))
 (let (($x2111 (= cell_3_3 4)))
 (let (($x2536 (= cell_3_3 3)))
 (let (($x174 (= cell_3_3 2)))
 (let (($x1978 (= cell_3_3 1)))
 (or $x1978 $x174 $x2536 $x2111 $x2332 $x1237 $x1303 $x1075 $x1725)))))))))))
(assert
 (let (($x850 (= cell_4_3 9)))
 (let (($x4119 (= cell_4_3 8)))
 (let (($x893 (= cell_4_3 7)))
 (let (($x1810 (= cell_4_3 6)))
 (let (($x1114 (= cell_4_3 5)))
 (let (($x448 (= cell_4_3 4)))
 (let (($x941 (= cell_4_3 3)))
 (let (($x613 (= cell_4_3 2)))
 (let (($x827 (= cell_4_3 1)))
 (or $x827 $x613 $x941 $x448 $x1114 $x1810 $x893 $x4119 $x850)))))))))))
(assert
 (let (($x2431 (= cell_5_3 1)))
 (or $x2431 (= cell_5_3 2) (= cell_5_3 3) (= cell_5_3 4) (= cell_5_3 5) (= cell_5_3 6) (= cell_5_3 7) (= cell_5_3 8) (= cell_5_3 9))))
(assert
 (let (($x2800 (= cell_6_3 9)))
 (let (($x225 (= cell_6_3 8)))
 (let (($x274 (= cell_6_3 7)))
 (let (($x1471 (= cell_6_3 6)))
 (let (($x135 (= cell_6_3 5)))
 (let (($x2911 (= cell_6_3 4)))
 (let (($x2168 (= cell_6_3 3)))
 (let (($x2391 (= cell_6_3 2)))
 (let (($x1841 (= cell_6_3 1)))
 (or $x1841 $x2391 $x2168 $x2911 $x135 $x1471 $x274 $x225 $x2800)))))))))))
(assert
 (let (($x3134 (= cell_7_3 9)))
 (let (($x1100 (= cell_7_3 8)))
 (let (($x2508 (= cell_7_3 7)))
 (let (($x447 (= cell_7_3 6)))
 (let (($x34 (= cell_7_3 5)))
 (let (($x2043 (= cell_7_3 4)))
 (let (($x265 (= cell_7_3 3)))
 (let (($x2082 (= cell_7_3 2)))
 (let (($x2776 (= cell_7_3 1)))
 (or $x2776 $x2082 $x265 $x2043 $x34 $x447 $x2508 $x1100 $x3134)))))))))))
(assert
 (let (($x1803 (= cell_8_3 9)))
 (let (($x1331 (= cell_8_3 8)))
 (let (($x2131 (= cell_8_3 7)))
 (let (($x2542 (= cell_8_3 6)))
 (let (($x2730 (= cell_8_3 5)))
 (let (($x714 (= cell_8_3 4)))
 (let (($x1115 (= cell_8_3 3)))
 (let (($x1398 (= cell_8_3 2)))
 (let (($x2540 (= cell_8_3 1)))
 (or $x2540 $x1398 $x1115 $x714 $x2730 $x2542 $x2131 $x1331 $x1803)))))))))))
(assert
 (let (($x1546 (= cell_9_3 2)))
 (let (($x99 (= cell_9_3 1)))
 (or $x99 $x1546 (= cell_9_3 3) (= cell_9_3 4) (= cell_9_3 5) (= cell_9_3 6) (= cell_9_3 7) (= cell_9_3 8) (= cell_9_3 9)))))
(assert
 (let (($x777 (= cell_1_4 1)))
 (or $x777 (= cell_1_4 2) (= cell_1_4 3) (= cell_1_4 4) (= cell_1_4 5) (= cell_1_4 6) (= cell_1_4 7) (= cell_1_4 8) (= cell_1_4 9))))
(assert
 (let (($x792 (= cell_2_4 9)))
 (let (($x834 (= cell_2_4 8)))
 (let (($x2816 (= cell_2_4 7)))
 (let (($x1819 (= cell_2_4 6)))
 (let (($x2145 (= cell_2_4 5)))
 (let (($x1473 (= cell_2_4 4)))
 (let (($x1431 (= cell_2_4 3)))
 (let (($x7993 (= cell_2_4 2)))
 (let (($x2533 (= cell_2_4 1)))
 (or $x2533 $x7993 $x1431 $x1473 $x2145 $x1819 $x2816 $x834 $x792)))))))))))
(assert
 (let (($x1933 (= cell_3_4 9)))
 (let (($x2678 (= cell_3_4 8)))
 (let (($x3562 (= cell_3_4 7)))
 (let (($x143 (= cell_3_4 6)))
 (let (($x289 (= cell_3_4 5)))
 (let (($x2454 (= cell_3_4 4)))
 (let (($x3394 (= cell_3_4 3)))
 (let (($x2690 (= cell_3_4 2)))
 (let (($x1660 (= cell_3_4 1)))
 (or $x1660 $x2690 $x3394 $x2454 $x289 $x143 $x3562 $x2678 $x1933)))))))))))
(assert
 (let (($x2839 (= cell_4_4 9)))
 (let (($x2219 (= cell_4_4 8)))
 (let (($x706 (= cell_4_4 7)))
 (let (($x2552 (= cell_4_4 6)))
 (let (($x227 (= cell_4_4 5)))
 (let (($x3792 (= cell_4_4 4)))
 (let (($x1487 (= cell_4_4 3)))
 (let (($x3350 (= cell_4_4 2)))
 (let (($x1722 (= cell_4_4 1)))
 (or $x1722 $x3350 $x1487 $x3792 $x227 $x2552 $x706 $x2219 $x2839)))))))))))
(assert
 (let (($x186 (= cell_5_4 9)))
 (let (($x942 (= cell_5_4 8)))
 (let (($x2564 (= cell_5_4 7)))
 (let (($x1721 (= cell_5_4 6)))
 (let (($x2478 (= cell_5_4 5)))
 (let (($x2052 (= cell_5_4 4)))
 (let (($x3283 (= cell_5_4 3)))
 (let (($x2097 (= cell_5_4 2)))
 (let (($x3760 (= cell_5_4 1)))
 (or $x3760 $x2097 $x3283 $x2052 $x2478 $x1721 $x2564 $x942 $x186)))))))))))
(assert
 (let (($x757 (= cell_6_4 2)))
 (or (= cell_6_4 1) $x757 (= cell_6_4 3) (= cell_6_4 4) (= cell_6_4 5) (= cell_6_4 6) (= cell_6_4 7) (= cell_6_4 8) (= cell_6_4 9))))
(assert
 (let (($x3251 (= cell_7_4 9)))
 (let (($x2970 (= cell_7_4 8)))
 (let (($x1565 (= cell_7_4 7)))
 (let (($x1478 (= cell_7_4 6)))
 (let (($x4067 (= cell_7_4 5)))
 (let (($x88 (= cell_7_4 4)))
 (let (($x1598 (= cell_7_4 3)))
 (let (($x1799 (= cell_7_4 2)))
 (let (($x1312 (= cell_7_4 1)))
 (or $x1312 $x1799 $x1598 $x88 $x4067 $x1478 $x1565 $x2970 $x3251)))))))))))
(assert
 (let (($x2661 (= cell_8_4 9)))
 (let (($x2524 (= cell_8_4 8)))
 (let (($x931 (= cell_8_4 7)))
 (let (($x3666 (= cell_8_4 6)))
 (let (($x2561 (= cell_8_4 5)))
 (let (($x789 (= cell_8_4 4)))
 (let (($x3550 (= cell_8_4 3)))
 (let (($x679 (= cell_8_4 2)))
 (let (($x1957 (= cell_8_4 1)))
 (or $x1957 $x679 $x3550 $x789 $x2561 $x3666 $x931 $x2524 $x2661)))))))))))
(assert
 (let (($x65 (= cell_9_4 2)))
 (let (($x3193 (= cell_9_4 1)))
 (or $x3193 $x65 (= cell_9_4 3) (= cell_9_4 4) (= cell_9_4 5) (= cell_9_4 6) (= cell_9_4 7) (= cell_9_4 8) (= cell_9_4 9)))))
(assert
 (let (($x382 (= cell_1_5 9)))
 (let (($x206 (= cell_1_5 8)))
 (let (($x191 (= cell_1_5 7)))
 (let (($x904 (= cell_1_5 6)))
 (let (($x1929 (= cell_1_5 5)))
 (let (($x66 (= cell_1_5 4)))
 (let (($x2570 (= cell_1_5 3)))
 (let (($x44 (= cell_1_5 2)))
 (let (($x115 (= cell_1_5 1)))
 (or $x115 $x44 $x2570 $x66 $x1929 $x904 $x191 $x206 $x382)))))))))))
(assert
 (let (($x1462 (= cell_2_5 9)))
 (let (($x2996 (= cell_2_5 8)))
 (let (($x2650 (= cell_2_5 7)))
 (let (($x7970 (= cell_2_5 6)))
 (let (($x1766 (= cell_2_5 5)))
 (let (($x1005 (= cell_2_5 4)))
 (let (($x4251 (= cell_2_5 3)))
 (let (($x2901 (= cell_2_5 2)))
 (let (($x491 (= cell_2_5 1)))
 (or $x491 $x2901 $x4251 $x1005 $x1766 $x7970 $x2650 $x2996 $x1462)))))))))))
(assert
 (let (($x3559 (= cell_3_5 2)))
 (or (= cell_3_5 1) $x3559 (= cell_3_5 3) (= cell_3_5 4) (= cell_3_5 5) (= cell_3_5 6) (= cell_3_5 7) (= cell_3_5 8) (= cell_3_5 9))))
(assert
 (let (($x1880 (= cell_4_5 9)))
 (let (($x763 (= cell_4_5 8)))
 (let (($x584 (= cell_4_5 7)))
 (let (($x2847 (= cell_4_5 6)))
 (let (($x1183 (= cell_4_5 5)))
 (let (($x1304 (= cell_4_5 4)))
 (let (($x1514 (= cell_4_5 3)))
 (let (($x2093 (= cell_4_5 2)))
 (let (($x709 (= cell_4_5 1)))
 (or $x709 $x2093 $x1514 $x1304 $x1183 $x2847 $x584 $x763 $x1880)))))))))))
(assert
 (let (($x1711 (= cell_5_5 9)))
 (let (($x2038 (= cell_5_5 8)))
 (let (($x352 (= cell_5_5 7)))
 (let (($x889 (= cell_5_5 6)))
 (let (($x4043 (= cell_5_5 5)))
 (let (($x2277 (= cell_5_5 4)))
 (let (($x3358 (= cell_5_5 3)))
 (let (($x824 (= cell_5_5 2)))
 (let (($x922 (= cell_5_5 1)))
 (or $x922 $x824 $x3358 $x2277 $x4043 $x889 $x352 $x2038 $x1711)))))))))))
(assert
 (let (($x1047 (= cell_6_5 9)))
 (let (($x3039 (= cell_6_5 8)))
 (let (($x354 (= cell_6_5 7)))
 (let (($x2651 (= cell_6_5 6)))
 (let (($x2355 (= cell_6_5 5)))
 (let (($x2810 (= cell_6_5 4)))
 (let (($x2649 (= cell_6_5 3)))
 (let (($x2681 (= cell_6_5 2)))
 (let (($x860 (= cell_6_5 1)))
 (or $x860 $x2681 $x2649 $x2810 $x2355 $x2651 $x354 $x3039 $x1047)))))))))))
(assert
 (let (($x3244 (= cell_7_5 1)))
 (or $x3244 (= cell_7_5 2) (= cell_7_5 3) (= cell_7_5 4) (= cell_7_5 5) (= cell_7_5 6) (= cell_7_5 7) (= cell_7_5 8) (= cell_7_5 9))))
(assert
 (let (($x83 (= cell_8_5 9)))
 (let (($x1916 (= cell_8_5 8)))
 (let (($x81 (= cell_8_5 7)))
 (let (($x3614 (= cell_8_5 6)))
 (let (($x3691 (= cell_8_5 5)))
 (let (($x939 (= cell_8_5 4)))
 (let (($x557 (= cell_8_5 3)))
 (let (($x3236 (= cell_8_5 2)))
 (let (($x623 (= cell_8_5 1)))
 (or $x623 $x3236 $x557 $x939 $x3691 $x3614 $x81 $x1916 $x83)))))))))))
(assert
 (let (($x1076 (= cell_9_5 2)))
 (let (($x774 (= cell_9_5 1)))
 (or $x774 $x1076 (= cell_9_5 3) (= cell_9_5 4) (= cell_9_5 5) (= cell_9_5 6) (= cell_9_5 7) (= cell_9_5 8) (= cell_9_5 9)))))
(assert
 (let (($x3879 (= cell_1_6 9)))
 (let (($x670 (= cell_1_6 8)))
 (let (($x3591 (= cell_1_6 7)))
 (let (($x3541 (= cell_1_6 6)))
 (let (($x3191 (= cell_1_6 5)))
 (let (($x2741 (= cell_1_6 4)))
 (let (($x2463 (= cell_1_6 3)))
 (let (($x1756 (= cell_1_6 2)))
 (let (($x245 (= cell_1_6 1)))
 (or $x245 $x1756 $x2463 $x2741 $x3191 $x3541 $x3591 $x670 $x3879)))))))))))
(assert
 (let (($x2869 (= cell_2_6 9)))
 (let (($x3119 (= cell_2_6 8)))
 (let (($x3460 (= cell_2_6 7)))
 (let (($x910 (= cell_2_6 6)))
 (let (($x3234 (= cell_2_6 5)))
 (let (($x2677 (= cell_2_6 4)))
 (let (($x1765 (= cell_2_6 3)))
 (let (($x3272 (= cell_2_6 2)))
 (let (($x40 (= cell_2_6 1)))
 (or $x40 $x3272 $x1765 $x2677 $x3234 $x910 $x3460 $x3119 $x2869)))))))))))
(assert
 (let (($x19 (= cell_3_6 9)))
 (let (($x2914 (= cell_3_6 8)))
 (let (($x2181 (= cell_3_6 7)))
 (let (($x2983 (= cell_3_6 6)))
 (let (($x2622 (= cell_3_6 5)))
 (let (($x3481 (= cell_3_6 4)))
 (let (($x1982 (= cell_3_6 3)))
 (let (($x123 (= cell_3_6 2)))
 (let (($x2942 (= cell_3_6 1)))
 (or $x2942 $x123 $x1982 $x3481 $x2622 $x2983 $x2181 $x2914 $x19)))))))))))
(assert
 (let (($x1041 (= cell_4_6 9)))
 (let (($x2231 (= cell_4_6 8)))
 (let (($x627 (= cell_4_6 7)))
 (let (($x1340 (= cell_4_6 6)))
 (let (($x1104 (= cell_4_6 5)))
 (let (($x3647 (= cell_4_6 4)))
 (let (($x640 (= cell_4_6 3)))
 (let (($x2319 (= cell_4_6 2)))
 (let (($x7999 (= cell_4_6 1)))
 (or $x7999 $x2319 $x640 $x3647 $x1104 $x1340 $x627 $x2231 $x1041)))))))))))
(assert
 (let (($x3357 (= cell_5_6 9)))
 (let (($x2993 (= cell_5_6 8)))
 (let (($x2949 (= cell_5_6 7)))
 (let (($x1314 (= cell_5_6 6)))
 (let (($x859 (= cell_5_6 5)))
 (let (($x3354 (= cell_5_6 4)))
 (let (($x2656 (= cell_5_6 3)))
 (let (($x363 (= cell_5_6 2)))
 (let (($x1532 (= cell_5_6 1)))
 (or $x1532 $x363 $x2656 $x3354 $x859 $x1314 $x2949 $x2993 $x3357)))))))))))
(assert
 (let (($x1511 (= cell_6_6 1)))
 (or $x1511 (= cell_6_6 2) (= cell_6_6 3) (= cell_6_6 4) (= cell_6_6 5) (= cell_6_6 6) (= cell_6_6 7) (= cell_6_6 8) (= cell_6_6 9))))
(assert
 (let (($x752 (= cell_7_6 2)))
 (let (($x2322 (= cell_7_6 1)))
 (or $x2322 $x752 (= cell_7_6 3) (= cell_7_6 4) (= cell_7_6 5) (= cell_7_6 6) (= cell_7_6 7) (= cell_7_6 8) (= cell_7_6 9)))))
(assert
 (let (($x1793 (= cell_8_6 9)))
 (let (($x1282 (= cell_8_6 8)))
 (let (($x1889 (= cell_8_6 7)))
 (let (($x7665 (= cell_8_6 6)))
 (let (($x3723 (= cell_8_6 5)))
 (let (($x365 (= cell_8_6 4)))
 (let (($x2711 (= cell_8_6 3)))
 (let (($x1604 (= cell_8_6 2)))
 (let (($x2382 (= cell_8_6 1)))
 (or $x2382 $x1604 $x2711 $x365 $x3723 $x7665 $x1889 $x1282 $x1793)))))))))))
(assert
 (let (($x610 (= cell_9_6 2)))
 (let (($x411 (= cell_9_6 1)))
 (or $x411 $x610 (= cell_9_6 3) (= cell_9_6 4) (= cell_9_6 5) (= cell_9_6 6) (= cell_9_6 7) (= cell_9_6 8) (= cell_9_6 9)))))
(assert
 (let (($x2000 (= cell_1_7 2)))
 (or (= cell_1_7 1) $x2000 (= cell_1_7 3) (= cell_1_7 4) (= cell_1_7 5) (= cell_1_7 6) (= cell_1_7 7) (= cell_1_7 8) (= cell_1_7 9))))
(assert
 (let (($x2342 (= cell_2_7 9)))
 (let (($x929 (= cell_2_7 8)))
 (let (($x2255 (= cell_2_7 7)))
 (let (($x2235 (= cell_2_7 6)))
 (let (($x1122 (= cell_2_7 5)))
 (let (($x2936 (= cell_2_7 4)))
 (let (($x887 (= cell_2_7 3)))
 (let (($x628 (= cell_2_7 2)))
 (let (($x2064 (= cell_2_7 1)))
 (or $x2064 $x628 $x887 $x2936 $x1122 $x2235 $x2255 $x929 $x2342)))))))))))
(assert
 (let (($x1244 (= cell_3_7 9)))
 (let (($x2669 (= cell_3_7 8)))
 (let (($x891 (= cell_3_7 7)))
 (let (($x3014 (= cell_3_7 6)))
 (let (($x3853 (= cell_3_7 5)))
 (let (($x1712 (= cell_3_7 4)))
 (let (($x93 (= cell_3_7 3)))
 (let (($x3239 (= cell_3_7 2)))
 (let (($x1205 (= cell_3_7 1)))
 (or $x1205 $x3239 $x93 $x1712 $x3853 $x3014 $x891 $x2669 $x1244)))))))))))
(assert
 (let (($x1191 (= cell_4_7 1)))
 (or $x1191 (= cell_4_7 2) (= cell_4_7 3) (= cell_4_7 4) (= cell_4_7 5) (= cell_4_7 6) (= cell_4_7 7) (= cell_4_7 8) (= cell_4_7 9))))
(assert
 (let (($x7788 (= cell_5_7 2)))
 (let (($x317 (= cell_5_7 1)))
 (or $x317 $x7788 (= cell_5_7 3) (= cell_5_7 4) (= cell_5_7 5) (= cell_5_7 6) (= cell_5_7 7) (= cell_5_7 8) (= cell_5_7 9)))))
(assert
 (let (($x2461 (= cell_6_7 9)))
 (let (($x838 (= cell_6_7 8)))
 (let (($x897 (= cell_6_7 7)))
 (let (($x1821 (= cell_6_7 6)))
 (let (($x1736 (= cell_6_7 5)))
 (let (($x3376 (= cell_6_7 4)))
 (let (($x1949 (= cell_6_7 3)))
 (let (($x564 (= cell_6_7 2)))
 (let (($x2925 (= cell_6_7 1)))
 (or $x2925 $x564 $x1949 $x3376 $x1736 $x1821 $x897 $x838 $x2461)))))))))))
(assert
 (let (($x3062 (= cell_7_7 9)))
 (let (($x2024 (= cell_7_7 8)))
 (let (($x3072 (= cell_7_7 7)))
 (let (($x1128 (= cell_7_7 6)))
 (let (($x2573 (= cell_7_7 5)))
 (let (($x2494 (= cell_7_7 4)))
 (let (($x337 (= cell_7_7 3)))
 (let (($x1969 (= cell_7_7 2)))
 (let (($x1138 (= cell_7_7 1)))
 (or $x1138 $x1969 $x337 $x2494 $x2573 $x1128 $x3072 $x2024 $x3062)))))))))))
(assert
 (let (($x25 (= cell_8_7 9)))
 (let (($x2407 (= cell_8_7 8)))
 (let (($x948 (= cell_8_7 7)))
 (let (($x3045 (= cell_8_7 6)))
 (let (($x682 (= cell_8_7 5)))
 (let (($x3346 (= cell_8_7 4)))
 (let (($x3393 (= cell_8_7 3)))
 (let (($x1110 (= cell_8_7 2)))
 (let (($x3558 (= cell_8_7 1)))
 (or $x3558 $x1110 $x3393 $x3346 $x682 $x3045 $x948 $x2407 $x25)))))))))))
(assert
 (let (($x7805 (= cell_9_7 2)))
 (let (($x1931 (= cell_9_7 1)))
 (or $x1931 $x7805 (= cell_9_7 3) (= cell_9_7 4) (= cell_9_7 5) (= cell_9_7 6) (= cell_9_7 7) (= cell_9_7 8) (= cell_9_7 9)))))
(assert
 (let (($x2315 (= cell_1_8 9)))
 (let (($x3574 (= cell_1_8 8)))
 (let (($x2829 (= cell_1_8 7)))
 (let (($x1295 (= cell_1_8 6)))
 (let (($x809 (= cell_1_8 5)))
 (let (($x1894 (= cell_1_8 4)))
 (let (($x2112 (= cell_1_8 3)))
 (let (($x1069 (= cell_1_8 2)))
 (let (($x1939 (= cell_1_8 1)))
 (or $x1939 $x1069 $x2112 $x1894 $x809 $x1295 $x2829 $x3574 $x2315)))))))))))
(assert
 (let (($x588 (= cell_2_8 1)))
 (or $x588 (= cell_2_8 2) (= cell_2_8 3) (= cell_2_8 4) (= cell_2_8 5) (= cell_2_8 6) (= cell_2_8 7) (= cell_2_8 8) (= cell_2_8 9))))
(assert
 (let (($x814 (= cell_3_8 9)))
 (let (($x7975 (= cell_3_8 8)))
 (let (($x96 (= cell_3_8 7)))
 (let (($x3926 (= cell_3_8 6)))
 (let (($x7634 (= cell_3_8 5)))
 (let (($x1364 (= cell_3_8 4)))
 (let (($x2128 (= cell_3_8 3)))
 (let (($x794 (= cell_3_8 2)))
 (let (($x605 (= cell_3_8 1)))
 (or $x605 $x794 $x2128 $x1364 $x7634 $x3926 $x96 $x7975 $x814)))))))))))
(assert
 (let (($x471 (= cell_4_8 9)))
 (let (($x509 (= cell_4_8 8)))
 (let (($x552 (= cell_4_8 7)))
 (let (($x1446 (= cell_4_8 6)))
 (let (($x2785 (= cell_4_8 5)))
 (let (($x1606 (= cell_4_8 4)))
 (let (($x2429 (= cell_4_8 3)))
 (let (($x1697 (= cell_4_8 2)))
 (let (($x815 (= cell_4_8 1)))
 (or $x815 $x1697 $x2429 $x1606 $x2785 $x1446 $x552 $x509 $x471)))))))))))
(assert
 (let (($x1325 (= cell_5_8 9)))
 (let (($x51 (= cell_5_8 8)))
 (let (($x2968 (= cell_5_8 7)))
 (let (($x306 (= cell_5_8 6)))
 (let (($x417 (= cell_5_8 5)))
 (let (($x866 (= cell_5_8 4)))
 (let (($x418 (= cell_5_8 3)))
 (let (($x1904 (= cell_5_8 2)))
 (let (($x1888 (= cell_5_8 1)))
 (or $x1888 $x1904 $x418 $x866 $x417 $x306 $x2968 $x51 $x1325)))))))))))
(assert
 (let (($x1111 (= cell_6_8 9)))
 (let (($x2750 (= cell_6_8 8)))
 (let (($x3451 (= cell_6_8 7)))
 (let (($x3168 (= cell_6_8 6)))
 (let (($x2053 (= cell_6_8 5)))
 (let (($x776 (= cell_6_8 4)))
 (let (($x2500 (= cell_6_8 3)))
 (let (($x1099 (= cell_6_8 2)))
 (let (($x2267 (= cell_6_8 1)))
 (or $x2267 $x1099 $x2500 $x776 $x2053 $x3168 $x3451 $x2750 $x1111)))))))))))
(assert
 (let (($x508 (= cell_7_8 9)))
 (let (($x1004 (= cell_7_8 8)))
 (let (($x1671 (= cell_7_8 7)))
 (let (($x1234 (= cell_7_8 6)))
 (let (($x1034 (= cell_7_8 5)))
 (let (($x1036 (= cell_7_8 4)))
 (let (($x1419 (= cell_7_8 3)))
 (let (($x89 (= cell_7_8 2)))
 (let (($x1210 (= cell_7_8 1)))
 (or $x1210 $x89 $x1419 $x1036 $x1034 $x1234 $x1671 $x1004 $x508)))))))))))
(assert
 (let (($x7822 (= cell_8_8 2)))
 (or (= cell_8_8 1) $x7822 (= cell_8_8 3) (= cell_8_8 4) (= cell_8_8 5) (= cell_8_8 6) (= cell_8_8 7) (= cell_8_8 8) (= cell_8_8 9))))
(assert
 (let (($x2077 (= cell_9_8 2)))
 (let (($x1747 (= cell_9_8 1)))
 (or $x1747 $x2077 (= cell_9_8 3) (= cell_9_8 4) (= cell_9_8 5) (= cell_9_8 6) (= cell_9_8 7) (= cell_9_8 8) (= cell_9_8 9)))))
(assert
 (let (($x101 (= cell_1_9 9)))
 (let (($x2347 (= cell_1_9 8)))
 (let (($x3823 (= cell_1_9 7)))
 (let (($x1527 (= cell_1_9 6)))
 (let (($x2742 (= cell_1_9 5)))
 (let (($x3682 (= cell_1_9 4)))
 (let (($x2190 (= cell_1_9 3)))
 (let (($x3632 (= cell_1_9 2)))
 (let (($x1882 (= cell_1_9 1)))
 (or $x1882 $x3632 $x2190 $x3682 $x2742 $x1527 $x3823 $x2347 $x101)))))))))))
(assert
 (let (($x4175 (= cell_2_9 9)))
 (let (($x3457 (= cell_2_9 8)))
 (let (($x1612 (= cell_2_9 7)))
 (let (($x2040 (= cell_2_9 6)))
 (let (($x1517 (= cell_2_9 5)))
 (let (($x3815 (= cell_2_9 4)))
 (let (($x261 (= cell_2_9 3)))
 (let (($x7867 (= cell_2_9 2)))
 (let (($x664 (= cell_2_9 1)))
 (or $x664 $x7867 $x261 $x3815 $x1517 $x2040 $x1612 $x3457 $x4175)))))))))))
(assert
 (let (($x7795 (= cell_3_9 9)))
 (let (($x4118 (= cell_3_9 8)))
 (let (($x3626 (= cell_3_9 7)))
 (let (($x3711 (= cell_3_9 6)))
 (let (($x1224 (= cell_3_9 5)))
 (let (($x3170 (= cell_3_9 4)))
 (let (($x3556 (= cell_3_9 3)))
 (let (($x3185 (= cell_3_9 2)))
 (let (($x235 (= cell_3_9 1)))
 (or $x235 $x3185 $x3556 $x3170 $x1224 $x3711 $x3626 $x4118 $x7795)))))))))))
(assert
 (let (($x2151 (= cell_4_9 2)))
 (or (= cell_4_9 1) $x2151 (= cell_4_9 3) (= cell_4_9 4) (= cell_4_9 5) (= cell_4_9 6) (= cell_4_9 7) (= cell_4_9 8) (= cell_4_9 9))))
(assert
 (let (($x2994 (= cell_5_9 9)))
 (let (($x2210 (= cell_5_9 8)))
 (let (($x1567 (= cell_5_9 7)))
 (let (($x992 (= cell_5_9 6)))
 (let (($x2973 (= cell_5_9 5)))
 (let (($x1802 (= cell_5_9 4)))
 (let (($x2101 (= cell_5_9 3)))
 (let (($x1388 (= cell_5_9 2)))
 (let (($x1173 (= cell_5_9 1)))
 (or $x1173 $x1388 $x2101 $x1802 $x2973 $x992 $x1567 $x2210 $x2994)))))))))))
(assert
 (let (($x3227 (= cell_6_9 9)))
 (let (($x936 (= cell_6_9 8)))
 (let (($x3860 (= cell_6_9 7)))
 (let (($x3557 (= cell_6_9 6)))
 (let (($x1143 (= cell_6_9 5)))
 (let (($x2633 (= cell_6_9 4)))
 (let (($x547 (= cell_6_9 3)))
 (let (($x1629 (= cell_6_9 2)))
 (let (($x1043 (= cell_6_9 1)))
 (or $x1043 $x1629 $x547 $x2633 $x1143 $x3557 $x3860 $x936 $x3227)))))))))))
(assert
 (let (($x1206 (= cell_7_9 9)))
 (let (($x1119 (= cell_7_9 8)))
 (let (($x1828 (= cell_7_9 7)))
 (let (($x2593 (= cell_7_9 6)))
 (let (($x1836 (= cell_7_9 5)))
 (let (($x2305 (= cell_7_9 4)))
 (let (($x1226 (= cell_7_9 3)))
 (let (($x4089 (= cell_7_9 2)))
 (let (($x1243 (= cell_7_9 1)))
 (or $x1243 $x4089 $x1226 $x2305 $x1836 $x2593 $x1828 $x1119 $x1206)))))))))))
(assert
 (let (($x2360 (= cell_8_9 1)))
 (or $x2360 (= cell_8_9 2) (= cell_8_9 3) (= cell_8_9 4) (= cell_8_9 5) (= cell_8_9 6) (= cell_8_9 7) (= cell_8_9 8) (= cell_8_9 9))))
(assert
 (let (($x1130 (= cell_9_9 2)))
 (let (($x1850 (= cell_9_9 1)))
 (or $x1850 $x1130 (= cell_9_9 3) (= cell_9_9 4) (= cell_9_9 5) (= cell_9_9 6) (= cell_9_9 7) (= cell_9_9 8) (= cell_9_9 9)))))
(assert
 (and (distinct cell_1_1 cell_1_2 cell_1_3 cell_1_4 cell_1_5 cell_1_6 cell_1_7 cell_1_8 cell_1_9) true))
(assert
 (and (distinct cell_2_1 cell_2_2 cell_2_3 cell_2_4 cell_2_5 cell_2_6 cell_2_7 cell_2_8 cell_2_9) true))
(assert
 (and (distinct cell_3_1 cell_3_2 cell_3_3 cell_3_4 cell_3_5 cell_3_6 cell_3_7 cell_3_8 cell_3_9) true))
(assert
 (and (distinct cell_4_1 cell_4_2 cell_4_3 cell_4_4 cell_4_5 cell_4_6 cell_4_7 cell_4_8 cell_4_9) true))
(assert
 (and (distinct cell_5_1 cell_5_2 cell_5_3 cell_5_4 cell_5_5 cell_5_6 cell_5_7 cell_5_8 cell_5_9) true))
(assert
 (and (distinct cell_6_1 cell_6_2 cell_6_3 cell_6_4 cell_6_5 cell_6_6 cell_6_7 cell_6_8 cell_6_9) true))
(assert
 (and (distinct cell_7_1 cell_7_2 cell_7_3 cell_7_4 cell_7_5 cell_7_6 cell_7_7 cell_7_8 cell_7_9) true))
(assert
 (and (distinct cell_8_1 cell_8_2 cell_8_3 cell_8_4 cell_8_5 cell_8_6 cell_8_7 cell_8_8 cell_8_9) true))
(assert
 (and (distinct cell_9_1 cell_9_2 cell_9_3 cell_9_4 cell_9_5 cell_9_6 cell_9_7 cell_9_8 cell_9_9) true))
(assert
 (and (distinct cell_1_1 cell_2_1 cell_3_1 cell_4_1 cell_5_1 cell_6_1 cell_7_1 cell_8_1 cell_9_1) true))
(assert
 (and (distinct cell_1_2 cell_2_2 cell_3_2 cell_4_2 cell_5_2 cell_6_2 cell_7_2 cell_8_2 cell_9_2) true))
(assert
 (and (distinct cell_1_3 cell_2_3 cell_3_3 cell_4_3 cell_5_3 cell_6_3 cell_7_3 cell_8_3 cell_9_3) true))
(assert
 (and (distinct cell_1_4 cell_2_4 cell_3_4 cell_4_4 cell_5_4 cell_6_4 cell_7_4 cell_8_4 cell_9_4) true))
(assert
 (and (distinct cell_1_5 cell_2_5 cell_3_5 cell_4_5 cell_5_5 cell_6_5 cell_7_5 cell_8_5 cell_9_5) true))
(assert
 (and (distinct cell_1_6 cell_2_6 cell_3_6 cell_4_6 cell_5_6 cell_6_6 cell_7_6 cell_8_6 cell_9_6) true))
(assert
 (and (distinct cell_1_7 cell_2_7 cell_3_7 cell_4_7 cell_5_7 cell_6_7 cell_7_7 cell_8_7 cell_9_7) true))
(assert
 (and (distinct cell_1_8 cell_2_8 cell_3_8 cell_4_8 cell_5_8 cell_6_8 cell_7_8 cell_8_8 cell_9_8) true))
(assert
 (and (distinct cell_1_9 cell_2_9 cell_3_9 cell_4_9 cell_5_9 cell_6_9 cell_7_9 cell_8_9 cell_9_9) true))
(assert
 (and (distinct cell_1_1 cell_1_2 cell_1_3 cell_2_1 cell_2_2 cell_2_3 cell_3_1 cell_3_2 cell_3_3) true))
(assert
 (and (distinct cell_1_4 cell_1_5 cell_1_6 cell_2_4 cell_2_5 cell_2_6 cell_3_4 cell_3_5 cell_3_6) true))
(assert
 (and (distinct cell_1_7 cell_1_8 cell_1_9 cell_2_7 cell_2_8 cell_2_9 cell_3_7 cell_3_8 cell_3_9) true))
(assert
 (and (distinct cell_4_1 cell_4_2 cell_4_3 cell_5_1 cell_5_2 cell_5_3 cell_6_1 cell_6_2 cell_6_3) true))
(assert
 (and (distinct cell_4_4 cell_4_5 cell_4_6 cell_5_4 cell_5_5 cell_5_6 cell_6_4 cell_6_5 cell_6_6) true))
(assert
 (and (distinct cell_4_7 cell_4_8 cell_4_9 cell_5_7 cell_5_8 cell_5_9 cell_6_7 cell_6_8 cell_6_9) true))
(assert
 (and (distinct cell_7_1 cell_7_2 cell_7_3 cell_8_1 cell_8_2 cell_8_3 cell_9_1 cell_9_2 cell_9_3) true))
(assert
 (and (distinct cell_7_4 cell_7_5 cell_7_6 cell_8_4 cell_8_5 cell_8_6 cell_9_4 cell_9_5 cell_9_6) true))
(assert
 (and (distinct cell_7_7 cell_7_8 cell_7_9 cell_8_7 cell_8_8 cell_8_9 cell_9_7 cell_9_8 cell_9_9) true))
(assert
 (let (($x18 (and (distinct cell_5_9 cell_6_8 cell_7_7 cell_8_6) true)))
 (let (($x2402 (and (distinct cell_2_9 cell_3_8 cell_4_7 cell_5_6 cell_6_5 cell_7_4 cell_8_3 cell_9_2) true)))
 (let (($x2394 (and (distinct cell_1_8 cell_2_7 cell_3_6 cell_4_5 cell_5_4 cell_6_3 cell_7_2 cell_8_1) true)))
 (let (($x2835 (and (distinct cell_1_5 cell_2_4 cell_3_3 cell_4_2) true)))
 (let (($x3749 (and (distinct cell_5_1 cell_6_2 cell_7_3 cell_8_4) true)))
 (let (($x1730 (and (distinct cell_2_1 cell_3_2 cell_4_3 cell_5_4 cell_6_5 cell_7_6 cell_8_7 cell_9_8) true)))
 (let (($x2197 (and (distinct cell_1_2 cell_2_3 cell_3_4 cell_4_5 cell_5_6 cell_6_7 cell_7_8 cell_8_9) true)))
 (let (($x2692 (and (distinct cell_1_5 cell_2_6 cell_3_7 cell_4_8) true)))
 (and $x2692 $x2197 $x1730 $x3749 $x2835 $x2394 $x2402 $x18))))))))))
(assert
 (= cell_9_6 2))
(check-sat)
